db/data/2837325505249955323140981528334686993.z3.out
sat
-------------------
131.768330100
